32      4       
15      18      11      16      
0       0       0       0       0       3       2       3       4       
10      5       0       6       0       3       5       6       8       
5       0       0       2       1       2       5       6       
4       0       0       3       15      2       5       8       
8       0       1       1       0       1       7       
7       1       0       0       5       1       7       
4       1       0       1       0       2       9       10      
5       5       0       1       0       2       9       10      
4       1       0       0       1       3       11      13      14      
5       0       0       1       4       3       11      12      14      
4       0       14      6       0       2       15      16      
10      3       0       0       7       2       15      16      
6       0       1       4       0       2       15      16      
3       5       0       0       3       1       15      
7       1       6       0       0       2       17      20      
2       0       4       0       1       2       18      20      
7       0       1       1       0       1       18      
3       2       0       0       4       1       19      
5       0       7       0       1       2       21      22      
6       13      6       0       0       1       21      
3       0       0       1       6       2       23      24      
1       10      1       0       0       1       23      
1       0       7       1       0       2       26      28      
1       0       1       2       0       1       25      
7       0       1       0       9       2       27      28      
6       1       0       0       1       1       27      
2       0       5       9       0       2       29      30      
5       0       12      2       0       2       29      30      
2       1       0       0       1       1       31      
8       6       1       0       0       1       31      
2       1       0       0       1       1       32      
0       0       0       0       0       0       
